CPXPARAM_Barrier_Crossover#P4#2#CPXPARAM_Barrier_Ordering#P6#1#0.124489#0.128573
CPXPARAM_Barrier_Crossover#P4#2#CPXPARAM_MIP_Cuts_Cliques#P13#3#0.968208#0.999972
CPXPARAM_Barrier_Crossover#P4#2#CPXPARAM_MIP_Cuts_Covers#P14#1#0.968227#0.999992
CPXPARAM_Barrier_Crossover#P4#2#CPXPARAM_MIP_Cuts_FlowCovers#P16#1#0.968185#0.999948
CPXPARAM_Barrier_Crossover#P4#2#CPXPARAM_MIP_Cuts_Gomory#P18#1#0.968235#1.000000
